1 -1 2 0
1 -1 3 0
1 1 4 0
1 1 -5 0
1 -6 -7 0
1 -6 -3 0
1 6 1 0
1 8 -2 0
1 8 3 0
1 -8 -9 0
1 -8 10 0
1 8 -11 0
1 8 -4 0
1 -12 13 0
1 12 14 0
1 12 -15 0
1 -12 2 0
1 12 9 0
1 -12 10 0
1 12 -4 0
1 -3 -16 0
1 -3 -12 0
1 3 6 0
1 3 -17 0
1 -3 18 0
1 -3 -19 0
1 -3 -20 0
1 -3 1 0
1 3 -5 0
1 -5 21 0
1 5 16 0
1 -5 -22 0
1 5 -23 0
1 -5 6 0
1 5 -3 0
1 5 19 0
1 5 20 0
1 5 1 0
1 2 24 0
1 2 6 0
1 -2 25 0
1 -2 -26 0
1 -2 -27 0
1 2 8 0
1 -4 -28 0
1 -4 -24 0
1 4 12 0
1 -4 2 0
1 -4 -18 0
1 -4 26 0
1 -4 -27 0
1 4 -8 0
1 -4 29 0
1 -20 -13 0
1 20 14 0
1 -20 -23 0
1 20 -9 0
1 -20 10 0
1 20 5 0
1 23 13 0
1 -23 24 0
1 -23 -3 0
1 -23 -9 0
1 23 10 0
1 -23 -20 0
1 23 5 0
1 19 13 0
1 19 -30 0
1 -19 -9 0
1 -19 10 0
1 -19 26 0
1 -19 -5 0
1 -22 -14 0
1 22 -31 0
1 22 30 0
1 -22 -3 0
1 22 9 0
1 -22 -10 0
1 22 32 0
1 22 5 0
1 -10 -33 0
1 -10 14 0
1 -10 12 0
1 -10 34 0
1 -10 -35 0
1 -10 -36 0
1 -10 19 0
1 -10 20 0
1 10 8 0
1 10 37 0
1 14 -33 0
1 14 38 0
1 -14 -22 0
1 -14 -39 0
1 -14 35 0
1 14 37 0
1 9 13 0
1 9 -40 0
1 9 -16 0
1 -9 22 0
1 -9 -23 0
1 9 12 0
1 9 34 0
1 -9 -41 0
1 -9 -19 0
1 9 -8 0
1 -13 -16 0
1 -13 22 0
1 13 -9 0
1 13 41 0
1 -13 18 0
1 -35 14 0
1 35 30 0
1 35 10 0
1 -35 -42 0
1 -35 32 0
1 -43 -31 0
1 43 30 0
1 -43 35 0
1 39 -33 0
1 -39 -14 0
1 39 42 0
1 39 -32 0
1 33 40 0
1 -33 -14 0
1 -33 -31 0
1 33 30 0
1 33 10 0
1 32 43 0
1 32 -22 0
1 -32 -35 0
1 32 44 0
1 -30 33 0
1 -30 -43 0
1 30 -22 0
1 30 45 0
1 30 -46 0
1 -30 -35 0
1 -30 -19 0
1 30 -32 0
1 -30 47 0
1 42 -33 0
1 -42 43 0
1 42 -22 0
1 42 31 0
1 42 46 0
1 -42 34 0
1 -42 -39 0
1 -42 -35 0
1 -42 19 0
1 42 -48 0
1 -42 49 0
1 31 -33 0
1 -31 -43 0
1 -31 -46 0
1 31 50 0
1 31 19 0
1 31 42 0
1 31 49 0
1 -51 52 0
1 51 -53 0
1 -51 1 0
1 -51 54 0
1 7 -55 0
1 -7 -6 0
1 7 56 0
1 7 53 0
1 7 -51 0
1 -11 52 0
1 -11 -55 0
1 -11 57 0
1 11 15 0
1 11 58 0
1 15 -55 0
1 -15 57 0
1 15 59 0
1 15 -60 0
1 15 -53 0
1 15 61 0
1 -15 -62 0
1 55 63 0
1 55 -28 0
1 55 -24 0
1 55 53 0
1 55 -64 0
1 -55 -26 0
1 55 27 0
1 -55 -11 0
1 55 51 0
1 -53 55 0
1 53 -28 0
1 53 -24 0
1 -53 -15 0
1 53 7 0
1 53 -65 0
1 53 -64 0
1 -53 26 0
1 53 -27 0
1 -53 11 0
1 52 66 0
1 -52 63 0
1 -52 67 0
1 -52 -68 0
1 -52 15 0
1 52 60 0
1 -52 -11 0
1 52 -51 0
1 -60 -63 0
1 -60 15 0
1 60 -7 0
1 -60 69 0
1 -60 64 0
1 -60 11 0
1 -27 55 0
1 27 57 0
1 27 70 0
1 27 2 0
1 27 61 0
1 -27 62 0
1 -27 -4 0
1 -24 57 0
1 -24 -68 0
1 24 62 0
1 24 4 0
1 26 -70 0
1 26 -2 0
1 -26 62 0
1 26 71 0
1 -26 -72 0
1 -28 57 0
1 -28 67 0
1 -28 -73 0
1 28 2 0
1 28 53 0
1 -28 26 0
1 -28 71 0
1 -28 -72 0
1 -70 40 0
1 -70 -16 0
1 70 -28 0
1 70 24 0
1 -70 15 0
1 70 74 0
1 -70 41 0
1 62 -75 0
1 62 -24 0
1 -62 70 0
1 -62 -41 0
1 -62 -26 0
1 -62 27 0
1 57 75 0
1 57 -63 0
1 57 76 0
1 57 24 0
1 -57 74 0
1 -57 61 0
1 57 27 0
1 57 -11 0
1 61 75 0
1 -61 -28 0
1 -61 -57 0
1 61 15 0
1 -61 74 0
1 61 -77 0
1 61 78 0
1 -61 -11 0
1 -18 -16 0
1 18 -70 0
1 -18 79 0
1 -18 -73 0
1 -18 -3 0
1 18 -9 0
1 -18 35 0
1 -18 64 0
1 18 -71 0
1 18 5 0
1 16 13 0
1 16 -43 0
1 -16 -79 0
1 16 2 0
1 16 -3 0
1 16 9 0
1 -16 -18 0
1 -16 -62 0
1 16 -71 0
1 16 4 0
1 41 40 0
1 -41 -70 0
1 41 73 0
1 -41 39 0
1 41 77 0
1 -41 -71 0
1 41 -72 0
1 -40 -21 0
1 -40 -33 0
1 -40 -13 0
1 40 -80 0
1 -40 70 0
1 -40 17 0
1 40 -9 0
1 40 62 0
1 -40 71 0
1 40 -29 0
1 -73 28 0
1 -73 50 0
1 -73 -34 0
1 -73 18 0
1 -73 -26 0
1 -73 72 0
1 -73 81 0
1 -73 49 0
1 72 40 0
1 -72 16 0
1 -72 -73 0
1 72 -50 0
1 -72 34 0
1 72 -26 0
1 -72 -49 0
1 79 -75 0
1 79 -28 0
1 79 -82 0
1 -79 83 0
1 79 -74 0
1 -79 81 0
1 -79 84 0
1 -71 -75 0
1 -71 -40 0
1 -71 -28 0
1 71 -83 0
1 -71 18 0
1 71 81 0
1 34 21 0
1 -34 13 0
1 34 14 0
1 -34 31 0
1 34 9 0
1 -34 17 0
1 -34 -42 0
1 -34 -72 0
1 34 37 0
1 37 -13 0
1 -37 21 0
1 37 -31 0
1 37 73 0
1 37 -34 0
1 -37 17 0
1 37 -9 0
1 37 10 0
1 -37 -42 0
1 37 -29 0
1 -50 21 0
1 -50 38 0
1 50 -31 0
1 50 73 0
1 50 -25 0
1 -50 85 0
1 -50 36 0
1 50 -42 0
1 50 -72 0
1 49 -21 0
1 -49 38 0
1 49 -31 0
1 -49 -50 0
1 49 25 0
1 49 17 0
1 49 85 0
1 -49 84 0
1 17 21 0
1 -17 40 0
1 -17 86 0
1 17 87 0
1 17 50 0
1 17 -88 0
1 -17 41 0
1 -17 89 0
1 -17 47 0
1 -17 -49 0
1 17 -37 0
1 -21 -46 0
1 -21 34 0
1 21 -17 0
1 21 -90 0
1 21 47 0
1 -25 40 0
1 25 86 0
1 25 -91 0
1 25 83 0
1 -25 -50 0
1 -25 -2 0
1 25 -92 0
1 -25 81 0
1 -25 -49 0
1 25 29 0
1 -29 -40 0
1 -29 -91 0
1 -29 -83 0
1 -29 25 0
1 29 41 0
1 29 -4 0
1 29 -90 0
1 29 93 0
1 -29 81 0
1 29 49 0
1 -29 94 0
1 -29 -37 0
1 -46 21 0
1 46 95 0
1 -46 30 0
1 46 -83 0
1 46 -17 0
1 46 -85 0
1 46 -36 0
1 -46 -42 0
1 -46 -32 0
1 46 47 0
1 -47 -95 0
1 47 31 0
1 47 -30 0
1 -47 -46 0
1 -47 -17 0
1 -47 -85 0
1 -47 -42 0
1 -87 21 0
1 87 -95 0
1 87 -38 0
1 87 45 0
1 -87 91 0
1 87 85 0
1 87 48 0
1 -87 44 0
1 -89 -21 0
1 -89 -95 0
1 -89 38 0
1 -89 96 0
1 -89 45 0
1 89 -87 0
1 -89 85 0
1 -89 -36 0
1 89 44 0
1 36 97 0
1 36 -38 0
1 36 -98 0
1 36 87 0
1 -36 -50 0
1 -36 -99 0
1 36 100 0
1 -36 -89 0
1 -36 -47 0
1 36 49 0
1 -38 14 0
1 38 -97 0
1 -38 98 0
1 -38 -101 0
1 38 87 0
1 -38 50 0
1 -38 -102 0
1 38 103 0
1 -38 100 0
1 38 -47 0
1 -38 49 0
1 85 -97 0
1 85 -104 0
1 -85 -87 0
1 -85 46 0
1 -85 50 0
1 85 -9 0
1 -85 105 0
1 85 -89 0
1 -95 13 0
1 95 -106 0
1 95 -86 0
1 95 46 0
1 95 90 0
1 -95 -89 0
1 -101 96 0
1 101 -86 0
1 101 -48 0
1 -101 36 0
1 -101 -100 0
1 -101 44 0
1 100 -38 0
1 -100 96 0
1 -100 36 0
1 -100 48 0
1 -100 -90 0
1 -100 -44 0
1 -98 -38 0
1 98 -104 0
1 98 -103 0
1 98 36 0
1 98 -48 0
1 98 44 0
1 103 45 0
1 -103 -36 0
1 -103 107 0
1 -103 -48 0
1 -103 44 0
1 44 -108 0
1 44 98 0
1 44 101 0
1 44 45 0
1 -44 -87 0
1 -44 103 0
1 44 100 0
1 44 32 0
1 -45 -108 0
1 -45 -98 0
1 45 -30 0
1 45 109 0
1 -45 -87 0
1 45 -110 0
1 -45 100 0
1 -48 -108 0
1 48 111 0
1 48 97 0
1 -48 -98 0
1 -48 -96 0
1 -48 101 0
1 48 110 0
1 -48 -112 0
1 -48 -102 0
1 -48 -103 0
1 48 -100 0
1 -48 89 0
1 -96 111 0
1 96 -97 0
1 -96 -101 0
1 -96 -87 0
1 -96 110 0
1 -96 112 0
1 -96 -48 0
1 96 -102 0
1 96 -103 0
1 -96 100 0
1 96 -89 0
1 54 113 0
1 54 114 0
1 54 -115 0
1 -54 116 0
1 -56 -113 0
1 56 114 0
1 -56 7 0
1 56 -115 0
1 56 -117 0
1 -58 -113 0
1 58 -118 0
1 58 -117 0
1 58 119 0
1 58 120 0
1 59 113 0
1 59 -118 0
1 59 15 0
1 59 -121 0
1 -59 -117 0
1 -117 -122 0
1 -117 -67 0
1 117 -114 0
1 -117 -56 0
1 117 123 0
1 117 -124 0
1 -117 -125 0
1 -117 -58 0
1 -114 -122 0
1 114 68 0
1 -114 -59 0
1 -114 -56 0
1 -114 123 0
1 -114 -124 0
1 -114 58 0
1 -114 -54 0
1 115 126 0
1 -115 122 0
1 -115 -127 0
1 -115 59 0
1 -115 -56 0
1 -115 123 0
1 -115 -128 0
1 -115 129 0
1 115 58 0
1 115 -54 0
1 -113 -122 0
1 -113 59 0
1 -113 -56 0
1 113 -123 0
1 -113 -128 0
1 113 -58 0
1 130 52 0
1 -130 -68 0
1 -130 -118 0
1 130 -121 0
1 130 60 0
1 130 117 0
1 -130 -119 0
1 130 129 0
1 130 131 0
1 -68 52 0
1 68 -117 0
1 -68 -131 0
1 -124 -52 0
1 -124 114 0
1 124 -118 0
1 124 132 0
1 124 117 0
1 124 128 0
1 -124 -131 0
1 -124 -133 0
1 -67 -134 0
1 -67 52 0
1 -67 117 0
1 67 28 0
1 67 -135 0
1 67 -118 0
1 67 121 0
1 -67 -136 0
1 67 -132 0
1 67 60 0
1 -67 -133 0
1 -131 -137 0
1 -131 63 0
1 -131 -67 0
1 -131 -121 0
1 131 138 0
1 121 -137 0
1 -121 -80 0
1 -121 63 0
1 -121 -67 0
1 -121 68 0
1 -121 -59 0
1 121 139 0
1 -121 -77 0
1 -121 131 0
1 121 -124 0
1 -121 130 0
1 121 58 0
1 119 140 0
1 -119 -67 0
1 119 68 0
1 -119 59 0
1 119 141 0
1 -119 123 0
1 119 130 0
1 -119 142 0
1 119 58 0
1 118 -140 0
1 118 -67 0
1 118 68 0
1 118 143 0
1 118 59 0
1 -118 141 0
1 -118 123 0
1 118 -58 0
1 64 -134 0
1 64 -52 0
1 -64 -55 0
1 64 57 0
1 64 -121 0
1 64 -136 0
1 64 -132 0
1 -64 60 0
1 64 -53 0
1 -64 -123 0
1 64 131 0
1 -63 -52 0
1 63 -16 0
1 63 -55 0
1 -63 -122 0
1 -63 -121 0
1 -63 136 0
1 63 -132 0
1 -63 60 0
1 -63 -53 0
1 -63 61 0
1 -63 133 0
1 -77 80 0
1 -77 144 0
1 77 57 0
1 77 121 0
1 77 136 0
1 -77 -132 0
1 77 -41 0
1 -77 -145 0
1 77 -131 0
1 77 -133 0
1 80 -40 0
1 -80 -144 0
1 80 57 0
1 80 77 0
1 -80 65 0
1 80 133 0
1 -134 -75 0
1 -134 -146 0
1 134 -80 0
1 -134 -67 0
1 -134 -147 0
1 -134 77 0
1 134 -124 0
1 134 84 0
1 132 80 0
1 -132 -63 0
1 -132 147 0
1 -132 148 0
1 132 149 0
1 132 -77 0
1 132 -64 0
1 -132 -124 0
1 132 -150 0
1 133 137 0
1 133 -136 0
1 -133 151 0
1 -133 77 0
1 -133 124 0
1 133 152 0
1 -136 -137 0
1 -136 80 0
1 136 63 0
1 136 67 0
1 -136 153 0
1 136 -151 0
1 136 -141 0
1 -136 77 0
1 136 64 0
1 136 -150 0
1 -136 133 0
1 136 -152 0
1 74 -75 0
1 -74 144 0
1 -74 -57 0
1 -74 79 0
1 -74 141 0
1 74 69 0
1 -74 -65 0
1 74 61 0
1 74 62 0
1 74 71 0
1 -75 137 0
1 -75 144 0
1 75 -57 0
1 75 79 0
1 75 -132 0
1 -75 -69 0
1 -75 61 0
1 75 62 0
1 75 -37 0
1 148 134 0
1 -148 -144 0
1 -148 76 0
1 148 -154 0
1 -148 50 0
1 148 -132 0
1 148 -84 0
1 84 -66 0
1 -84 144 0
1 -84 76 0
1 -84 -154 0
1 84 -79 0
1 84 -148 0
1 84 132 0
1 84 -69 0
1 -84 -78 0
1 84 155 0
1 -144 -80 0
1 -144 -74 0
1 -144 -77 0
1 -144 65 0
1 65 75 0
1 -65 80 0
1 65 144 0
1 65 156 0
1 -65 -91 0
1 -65 83 0
1 -65 148 0
1 -65 -53 0
1 -65 -77 0
1 -65 157 0
1 65 93 0
1 65 -81 0
1 -66 75 0
1 -66 52 0
1 66 80 0
1 -66 -158 0
1 -66 156 0
1 -66 -159 0
1 66 -148 0
1 66 69 0
1 -66 -77 0
1 66 157 0
1 -66 150 0
1 66 -84 0
1 69 75 0
1 -69 66 0
1 69 -156 0
1 69 159 0
1 -69 -148 0
1 69 74 0
1 -69 -160 0
1 -69 -161 0
1 69 84 0
1 -83 76 0
1 83 -79 0
1 -83 46 0
1 83 -73 0
1 83 147 0
1 83 -25 0
1 83 65 0
1 -83 78 0
1 83 -155 0
1 -83 72 0
1 -81 -144 0
1 81 -76 0
1 81 154 0
1 81 72 0
1 -81 -83 0
1 -81 78 0
1 81 -47 0
1 -81 -29 0
1 -91 -162 0
1 -91 154 0
1 -91 82 0
1 91 -159 0
1 91 163 0
1 -91 65 0
1 91 155 0
1 91 -164 0
1 -93 144 0
1 93 -76 0
1 93 -82 0
1 93 65 0
1 93 155 0
1 93 162 0
1 -93 161 0
1 93 -164 0
1 -93 29 0
1 -154 155 0
1 154 165 0
1 154 104 0
1 154 86 0
1 154 -166 0
1 154 91 0
1 -154 83 0
1 154 -167 0
1 154 107 0
1 154 -81 0
1 -155 165 0
1 -155 104 0
1 155 -91 0
1 155 167 0
1 -155 -107 0
1 155 -62 0
1 155 93 0
1 155 81 0
1 -76 165 0
1 76 -57 0
1 -76 168 0
1 -76 156 0
1 76 91 0
1 76 148 0
1 -76 167 0
1 -76 78 0
1 -76 169 0
1 76 157 0
1 -76 93 0
1 -76 81 0
1 -78 170 0
1 -78 -156 0
1 78 91 0
1 78 -83 0
1 78 148 0
1 -78 -167 0
1 -78 -169 0
1 78 -157 0
1 -78 93 0
1 -78 84 0
1 -86 -21 0
1 -86 -95 0
1 86 -155 0
1 -86 163 0
1 -86 -25 0
1 86 17 0
1 86 90 0
1 -86 164 0
1 90 -21 0
1 90 95 0
1 90 154 0
1 -90 -82 0
1 90 -163 0
1 90 -17 0
1 -90 100 0
1 -90 155 0
1 -90 162 0
1 -90 -164 0
1 90 29 0
1 104 -171 0
1 104 -98 0
1 -104 -82 0
1 -104 -88 0
1 -104 107 0
1 104 155 0
1 104 -164 0
1 107 171 0
1 107 -95 0
1 -107 -154 0
1 107 -82 0
1 -107 -92 0
1 -107 169 0
1 -107 -155 0
1 107 -164 0
1 107 94 0
1 -163 172 0
1 163 -111 0
1 163 -173 0
1 163 -174 0
1 163 90 0
1 164 -172 0
1 164 -111 0
1 -164 -97 0
1 -164 86 0
1 164 174 0
1 164 102 0
1 164 -90 0
1 -164 93 0
1 -164 -72 0
1 -164 175 0
1 -82 172 0
1 -82 -104 0
1 -82 -86 0
1 82 -91 0
1 -82 -176 0
1 82 174 0
1 82 -177 0
1 -82 -167 0
1 -82 -107 0
1 -162 172 0
1 162 -104 0
1 -162 91 0
1 162 -167 0
1 -162 -107 0
1 -162 -90 0
1 162 93 0
1 162 178 0
1 97 -171 0
1 -97 95 0
1 97 -163 0
1 97 -92 0
1 97 -88 0
1 97 36 0
1 102 171 0
1 -102 95 0
1 102 -97 0
1 102 92 0
1 -102 88 0
1 -102 164 0
1 -111 179 0
1 111 -180 0
1 -111 92 0
1 -111 -112 0
1 111 105 0
1 -111 99 0
1 -111 -164 0
1 -112 171 0
1 112 180 0
1 112 163 0
1 112 92 0
1 -112 -105 0
1 -112 -99 0
1 -112 164 0
1 88 -111 0
1 -88 97 0
1 88 -104 0
1 88 -181 0
1 -88 110 0
1 88 -112 0
1 -88 -17 0
1 -88 -182 0
1 -88 -183 0
1 -88 -184 0
1 -171 -21 0
1 171 185 0
1 -171 97 0
1 171 -104 0
1 -171 181 0
1 171 -186 0
1 171 110 0
1 171 -112 0
1 171 102 0
1 171 183 0
1 -92 111 0
1 -92 97 0
1 92 181 0
1 92 112 0
1 92 187 0
1 -92 107 0
1 -92 188 0
1 94 172 0
1 94 -111 0
1 -94 97 0
1 -94 -189 0
1 -94 174 0
1 -94 112 0
1 94 -92 0
1 -94 102 0
1 -94 107 0
1 -94 -188 0
1 -108 45 0
1 -108 -88 0
1 -108 -105 0
1 -108 -48 0
1 -110 -171 0
1 110 106 0
1 110 -180 0
1 -110 174 0
1 110 88 0
1 110 105 0
1 -110 99 0
1 110 -48 0
1 110 -44 0
1 184 171 0
1 -184 -106 0
1 184 180 0
1 -184 -190 0
1 184 186 0
1 184 105 0
1 -184 191 0
1 -186 -171 0
1 186 -180 0
1 186 190 0
1 -186 189 0
1 186 -192 0
1 -186 191 0
1 -99 -108 0
1 -99 -110 0
1 99 193 0
1 -99 194 0
1 99 195 0
1 99 -184 0
1 180 -38 0
1 180 196 0
1 180 197 0
1 180 198 0
1 180 112 0
1 -180 199 0
1 180 184 0
1 105 -111 0
1 -105 106 0
1 105 -186 0
1 -105 -110 0
1 105 -112 0
1 -105 -85 0
1 105 200 0
1 105 -194 0
1 105 183 0
1 -105 -184 0
1 106 -108 0
1 106 -111 0
1 -106 201 0
1 106 197 0
1 -106 202 0
1 -106 181 0
1 -106 -186 0
1 106 -110 0
1 -106 -112 0
1 106 -194 0
1 106 183 0
1 106 -184 0
1 -199 190 0
1 199 203 0
1 -199 -99 0
1 199 192 0
1 199 191 0
1 199 183 0
1 203 -180 0
1 203 -190 0
1 203 -192 0
1 203 191 0
1 195 180 0
1 195 -109 0
1 -195 -99 0
1 195 -204 0
1 -198 -191 0
1 -198 180 0
1 -198 -190 0
1 198 -109 0
1 -198 -192 0
1 198 -195 0
1 -191 -205 0
1 191 198 0
1 -191 -203 0
1 191 186 0
1 191 206 0
1 -191 184 0
1 109 205 0
1 -109 -45 0
1 109 -198 0
1 -109 207 0
1 109 -203 0
1 -109 -186 0
1 109 -208 0
1 -109 -184 0
1 -192 -205 0
1 192 -209 0
1 -192 197 0
1 192 -198 0
1 192 186 0
1 -192 -210 0
1 -192 194 0
1 -192 -199 0
1 190 205 0
1 -190 -197 0
1 190 -203 0
1 -190 -210 0
1 190 194 0
1 190 -184 0
1 116 211 0
1 116 -212 0
1 -213 214 0
1 213 56 0
1 120 -215 0
1 -120 216 0
1 120 -214 0
1 -120 217 0
1 120 -218 0
1 -120 219 0
1 -216 219 0
1 -216 215 0
1 216 59 0
1 -216 214 0
1 216 -218 0
1 216 -211 0
1 216 212 0
1 216 220 0
1 -214 -135 0
1 -214 216 0
1 214 -221 0
1 214 -212 0
1 212 135 0
1 -212 -127 0
1 -212 -216 0
1 -212 214 0
1 -212 -213 0
1 -212 -128 0
1 212 129 0
1 -212 120 0
1 -215 222 0
1 215 -213 0
1 -215 -120 0
1 -215 -116 0
1 211 216 0
1 211 -213 0
1 211 -116 0
1 -129 113 0
1 129 -127 0
1 -129 217 0
1 129 218 0
1 129 -130 0
1 -129 -212 0
1 -129 -219 0
1 129 220 0
1 -127 113 0
1 -127 -68 0
1 -127 214 0
1 127 -218 0
1 127 115 0
1 -127 -212 0
1 127 220 0
1 128 -223 0
1 128 -214 0
1 -128 -217 0
1 128 -218 0
1 128 -115 0
1 128 -212 0
1 128 -219 0
1 128 -220 0
1 -135 223 0
1 135 224 0
1 135 -113 0
1 -135 67 0
1 -135 -214 0
1 -135 -217 0
1 -135 115 0
1 135 -128 0
1 -135 -212 0
1 135 -220 0
1 -218 225 0
1 218 -140 0
1 218 135 0
1 -218 -127 0
1 218 226 0
1 -218 -227 0
1 -218 145 0
1 -218 123 0
1 218 -129 0
1 -220 -140 0
1 220 -135 0
1 220 -127 0
1 -220 -216 0
1 -220 218 0
1 220 -145 0
1 -220 -123 0
1 -220 128 0
1 220 129 0
1 -220 120 0
1 217 -225 0
1 -217 219 0
1 -217 227 0
1 217 120 0
1 219 225 0
1 -219 -127 0
1 219 -216 0
1 -219 -217 0
1 -219 227 0
1 219 -128 0
1 219 -129 0
1 219 120 0
1 219 228 0
1 123 -223 0
1 -123 224 0
1 123 -117 0
1 -123 -122 0
1 123 114 0
1 123 113 0
1 -123 -218 0
1 -123 229 0
1 -123 -220 0
1 122 224 0
1 122 63 0
1 -122 229 0
1 122 117 0
1 122 -119 0
1 122 220 0
1 -145 -223 0
1 -145 140 0
1 145 230 0
1 -145 -231 0
1 -145 -118 0
1 145 -218 0
1 145 232 0
1 145 -229 0
1 145 126 0
1 -145 125 0
1 -145 -119 0
1 -140 223 0
1 -140 80 0
1 140 224 0
1 140 -230 0
1 -140 231 0
1 140 118 0
1 -140 232 0
1 140 145 0
1 -140 -126 0
1 -140 -125 0
1 140 -220 0
1 229 -140 0
1 229 141 0
1 229 -145 0
1 -229 -128 0
1 224 137 0
1 224 -140 0
1 224 233 0
1 -224 -135 0
1 -224 234 0
1 224 -151 0
1 -224 141 0
1 -224 -123 0
1 224 152 0
1 232 235 0
1 232 140 0
1 -232 122 0
1 232 -236 0
1 -232 227 0
1 232 -237 0
1 -232 145 0
1 232 128 0
1 -232 238 0
1 223 -225 0
1 223 -239 0
1 -223 140 0
1 223 -135 0
1 -223 234 0
1 223 -236 0
1 -223 227 0
1 -223 145 0
1 223 128 0
1 -223 238 0
1 -141 137 0
1 141 121 0
1 141 -229 0
1 141 119 0
1 -141 -131 0
1 141 133 0
1 -137 -75 0
1 -137 118 0
1 -137 -121 0
1 137 126 0
1 137 -125 0
1 -137 -131 0
1 151 231 0
1 -151 139 0
1 151 136 0
1 -151 -236 0
1 -151 -229 0
1 151 125 0
1 151 142 0
1 -151 -138 0
1 -152 -235 0
1 152 -230 0
1 -152 139 0
1 -152 -136 0
1 -152 229 0
1 -152 126 0
1 -152 138 0
1 152 -133 0
1 152 -84 0
1 -125 -140 0
1 125 -231 0
1 -125 -240 0
1 -125 159 0
1 125 -147 0
1 125 -241 0
1 -125 151 0
1 -125 -141 0
1 125 117 0
1 -125 -161 0
1 -125 -150 0
1 125 -152 0
1 -231 137 0
1 -231 114 0
1 231 159 0
1 -231 -147 0
1 231 -151 0
1 -231 -141 0
1 -231 -145 0
1 231 242 0
1 -231 161 0
1 -231 -150 0
1 -126 137 0
1 126 -230 0
1 126 240 0
1 -126 -234 0
1 -126 141 0
1 126 243 0
1 126 242 0
1 -126 -244 0
1 -126 -238 0
1 -230 137 0
1 230 113 0
1 -230 -240 0
1 -230 -245 0
1 230 234 0
1 230 141 0
1 -230 242 0
1 -230 152 0
1 147 -66 0
1 147 136 0
1 -147 -132 0
1 147 69 0
1 147 125 0
1 -147 142 0
1 147 -138 0
1 -147 150 0
1 -150 -134 0
1 -150 -133 0
1 150 -66 0
1 -150 139 0
1 150 -132 0
1 150 142 0
1 -150 -81 0
1 -150 238 0
1 -159 146 0
1 -159 66 0
1 159 -231 0
1 -159 -143 0
1 159 -91 0
1 159 139 0
1 -159 245 0
1 159 153 0
1 159 69 0
1 -159 -142 0
1 -159 -161 0
1 -159 246 0
1 161 -146 0
1 161 -66 0
1 -161 -231 0
1 161 -159 0
1 -161 -139 0
1 -161 -153 0
1 161 149 0
1 -161 125 0
1 -161 93 0
1 161 -246 0
1 -138 247 0
1 138 248 0
1 138 159 0
1 138 139 0
1 138 147 0
1 -138 157 0
1 -138 131 0
1 -138 -249 0
1 139 -247 0
1 -139 156 0
1 -139 -250 0
1 -139 -147 0
1 139 151 0
1 -139 251 0
1 -139 -169 0
1 -139 138 0
1 142 247 0
1 -142 143 0
1 142 -240 0
1 142 -159 0
1 -142 119 0
1 142 151 0
1 142 -252 0
1 -142 -242 0
1 142 -161 0
1 -142 -150 0
1 -142 152 0
1 -143 -253 0
1 -143 118 0
1 143 240 0
1 143 -159 0
1 143 254 0
1 143 -151 0
1 143 -142 0
1 -143 -251 0
1 -143 252 0
1 -143 -242 0
1 -156 -146 0
1 156 -66 0
1 -156 144 0
1 156 240 0
1 156 139 0
1 -156 -69 0
1 157 66 0
1 -157 144 0
1 -157 -156 0
1 -157 139 0
1 -157 153 0
1 -157 149 0
1 -157 69 0
1 -157 -65 0
1 -157 78 0
1 157 90 0
1 -157 242 0
1 157 -246 0
1 248 255 0
1 248 -76 0
1 248 253 0
1 -248 139 0
1 248 153 0
1 248 256 0
1 -248 -78 0
1 248 138 0
1 248 246 0
1 -169 -146 0
1 -169 -158 0
1 -169 -248 0
1 -169 139 0
1 169 -153 0
1 -169 149 0
1 169 -256 0
1 -169 -78 0
1 -169 107 0
1 -169 -252 0
1 -169 138 0
1 -169 -246 0
1 -146 134 0
1 -146 257 0
1 -146 248 0
1 -146 156 0
1 146 159 0
1 146 -177 0
1 146 169 0
1 146 161 0
1 149 -146 0
1 149 258 0
1 149 179 0
1 -149 165 0
1 -149 132 0
1 149 -259 0
1 -149 260 0
1 -149 -167 0
1 149 -169 0
1 246 -258 0
1 -246 247 0
1 246 -156 0
1 -246 153 0
1 -246 259 0
1 -246 -261 0
1 246 169 0
1 246 -157 0
1 246 -161 0
1 153 -247 0
1 -153 -248 0
1 153 -156 0
1 153 -159 0
1 -153 136 0
1 -153 -259 0
1 -153 -169 0
1 -165 -146 0
1 165 247 0
1 165 -82 0
1 -165 167 0
1 165 -256 0
1 165 -155 0
1 167 146 0
1 167 158 0
1 167 165 0
1 167 -76 0
1 167 154 0
1 -167 82 0
1 167 -160 0
1 167 -251 0
1 167 256 0
1 -179 -146 0
1 -179 -111 0
1 179 -262 0
1 -179 -158 0
1 179 -255 0
1 -179 -82 0
1 -179 149 0
1 179 177 0
1 -179 -160 0
1 179 256 0
1 179 -263 0
1 179 -162 0
1 -177 -158 0
1 177 82 0
1 -177 -261 0
1 177 160 0
1 -177 170 0
1 -177 263 0
1 -255 179 0
1 -255 -165 0
1 255 -264 0
1 -255 248 0
1 -255 -177 0
1 -255 167 0
1 255 169 0
1 -255 188 0
1 256 -179 0
1 -256 -165 0
1 -256 -255 0
1 256 -248 0
1 256 -174 0
1 -256 65 0
1 256 -188 0
1 -158 -258 0
1 158 -179 0
1 158 -66 0
1 158 -165 0
1 -158 -265 0
1 158 248 0
1 158 -259 0
1 158 160 0
1 -158 -167 0
1 160 -266 0
1 -160 -179 0
1 160 -158 0
1 160 -165 0
1 -160 248 0
1 -160 267 0
1 -160 -259 0
1 -160 167 0
1 -160 -268 0
1 -160 169 0
1 172 -258 0
1 172 -166 0
1 -172 174 0
1 -172 -256 0
1 172 -170 0
1 172 -162 0
1 174 172 0
1 174 166 0
1 -174 82 0
1 174 -163 0
1 -174 110 0
1 174 -92 0
1 -174 256 0
1 174 263 0
1 174 164 0
1 -188 -266 0
1 -188 255 0
1 188 168 0
1 188 189 0
1 188 173 0
1 -188 -92 0
1 188 -263 0
1 -188 -175 0
1 188 184 0
1 -189 -255 0
1 -189 168 0
1 -189 166 0
1 -189 176 0
1 -189 186 0
1 189 -92 0
1 189 256 0
1 189 170 0
1 189 -263 0
1 189 178 0
1 -189 -175 0
1 -166 172 0
1 -166 -263 0
1 166 202 0
1 -166 -181 0
1 166 189 0
1 -166 174 0
1 166 -177 0
1 166 183 0
1 -263 -172 0
1 -263 179 0
1 263 -202 0
1 263 181 0
1 -263 174 0
1 263 155 0
1 263 204 0
1 -263 183 0
1 -168 172 0
1 168 179 0
1 -168 269 0
1 -168 -270 0
1 -168 -189 0
1 -168 -177 0
1 -168 -170 0
1 -168 188 0
1 170 269 0
1 170 -168 0
1 170 271 0
1 170 270 0
1 -170 -189 0
1 170 -174 0
1 -170 -177 0
1 -170 -78 0
1 170 272 0
1 170 273 0
1 -170 -274 0
1 -183 -171 0
1 183 106 0
1 183 176 0
1 183 88 0
1 183 105 0
1 -183 178 0
1 -183 -199 0
1 183 175 0
1 -181 106 0
1 -181 -166 0
1 -181 -176 0
1 -181 -270 0
1 181 92 0
1 -181 175 0
1 -181 183 0
1 204 185 0
1 -204 106 0
1 -204 -202 0
1 -204 176 0
1 -204 -173 0
1 -204 -182 0
1 204 105 0
1 -204 -263 0
1 204 195 0
1 204 -274 0
1 204 -175 0
1 202 -106 0
1 -202 198 0
1 -202 -166 0
1 -202 176 0
1 -202 -173 0
1 202 187 0
1 -202 -175 0
1 -173 -275 0
1 173 -197 0
1 173 -202 0
1 173 -276 0
1 173 -277 0
1 173 210 0
1 -173 204 0
1 -173 183 0
1 -173 188 0
1 175 197 0
1 -175 -202 0
1 -175 189 0
1 -175 173 0
1 175 -194 0
1 175 204 0
1 -175 164 0
1 -175 -278 0
1 176 269 0
1 -176 -202 0
1 -176 -82 0
1 -176 -181 0
1 -176 -279 0
1 176 -178 0
1 176 280 0
1 -176 183 0
1 -176 188 0
1 -178 -275 0
1 -178 -281 0
1 178 -269 0
1 178 -202 0
1 -178 -176 0
1 -178 -189 0
1 -178 -277 0
1 178 273 0
1 -178 -183 0
1 178 -188 0
1 -194 -282 0
1 194 -185 0
1 194 -106 0
1 -194 180 0
1 -194 190 0
1 -194 105 0
1 194 -99 0
1 194 175 0
1 197 -185 0
1 -197 180 0
1 -197 -182 0
1 197 192 0
1 -197 194 0
1 210 282 0
1 -210 185 0
1 -210 -196 0
1 -210 190 0
1 210 -280 0
1 210 182 0
1 -210 200 0
1 -210 193 0
1 210 -192 0
1 209 -282 0
1 209 185 0
1 -209 201 0
1 -209 196 0
1 209 -173 0
1 209 -182 0
1 -209 -210 0
1 -209 193 0
1 209 -192 0
1 209 -175 0
1 182 283 0
1 -182 284 0
1 182 -185 0
1 182 202 0
1 -182 -285 0
1 182 -286 0
1 -182 -204 0
1 -185 -283 0
1 -185 -205 0
1 -185 -209 0
1 -185 -197 0
1 -185 -182 0
1 -185 208 0
1 185 194 0
1 187 283 0
1 187 -287 0
1 187 -275 0
1 -187 -209 0
1 187 202 0
1 -187 -92 0
1 187 288 0
1 -187 -194 0
1 -282 -283 0
1 282 287 0
1 282 275 0
1 282 -202 0
1 282 -277 0
1 -282 194 0
1 -282 204 0
1 -208 -185 0
1 208 205 0
1 -208 201 0
1 208 -196 0
1 -208 190 0
1 208 -277 0
1 208 -200 0
1 -208 -193 0
1 205 -185 0
1 205 -275 0
1 -205 201 0
1 205 -196 0
1 205 109 0
1 205 182 0
1 -205 200 0
1 205 -192 0
1 -286 284 0
1 -286 201 0
1 286 196 0
1 286 289 0
1 -286 207 0
1 -286 -288 0
1 286 182 0
1 -286 193 0
1 -286 -290 0
1 -286 206 0
1 -284 -287 0
1 284 -185 0
1 284 -201 0
1 284 -289 0
1 284 193 0
1 -284 290 0
1 -284 -206 0
1 -193 205 0
1 193 209 0
1 -193 -286 0
1 -193 -99 0
1 193 291 0
1 -196 -284 0
1 -196 -205 0
1 -196 180 0
1 -196 208 0
1 196 292 0
1 200 284 0
1 200 -205 0
1 200 201 0
1 -200 -209 0
1 -200 285 0
1 -200 -286 0
1 -200 -208 0
1 -200 -293 0
1 -201 -205 0
1 201 106 0
1 -201 -209 0
1 201 294 0
1 201 285 0
1 -201 -286 0
1 -201 -208 0
1 -201 200 0
1 -295 -196 0
1 295 289 0
1 -295 -291 0
1 -295 -193 0
1 291 196 0
1 291 289 0
1 291 295 0
1 291 -290 0
1 296 -196 0
1 -296 289 0
1 -296 -207 0
1 -296 -206 0
1 -292 -207 0
1 292 -296 0
1 292 -193 0
1 -292 -290 0
1 292 -293 0
1 -206 -207 0
1 206 295 0
1 -206 -286 0
1 207 296 0
1 207 -295 0
1 -207 206 0
1 -207 291 0
1 290 -289 0
1 290 -292 0
1 -290 -291 0
1 289 284 0
1 289 190 0
1 289 -296 0
1 289 286 0
1 -289 290 0
1 289 291 0
1 -227 -223 0
1 -227 -221 0
1 -227 217 0
1 227 -141 0
1 -227 232 0
1 227 297 0
1 227 -219 0
1 227 -220 0
1 225 -137 0
1 -225 -221 0
1 225 218 0
1 -225 232 0
1 -225 -227 0
1 225 297 0
1 -225 298 0
1 -225 219 0
1 -236 -223 0
1 236 -299 0
1 -236 -222 0
1 -236 221 0
1 -236 -300 0
1 -236 -151 0
1 -236 226 0
1 236 -232 0
1 235 -299 0
1 235 -221 0
1 -235 226 0
1 235 -297 0
1 235 298 0
1 -221 -245 0
1 -221 301 0
1 -221 227 0
1 -221 238 0
1 -221 298 0
1 -298 235 0
1 298 -225 0
1 298 -234 0
1 -298 227 0
1 298 244 0
1 222 235 0
1 222 -215 0
1 -222 302 0
1 -222 -236 0
1 -222 227 0
1 -222 297 0
1 -297 235 0
1 -297 -222 0
1 -297 -303 0
1 -297 -236 0
1 234 -224 0
1 -234 230 0
1 234 228 0
1 -234 221 0
1 234 147 0
1 234 300 0
1 234 -226 0
1 234 -232 0
1 -234 229 0
1 -234 298 0
1 234 -238 0
1 -238 223 0
1 238 224 0
1 -238 -221 0
1 -238 234 0
1 238 -226 0
1 -238 -232 0
1 -238 -126 0
1 -238 -150 0
1 -238 -228 0
1 245 233 0
1 -245 230 0
1 -245 300 0
1 245 -304 0
1 245 -126 0
1 245 244 0
1 245 228 0
1 244 -239 0
1 244 -233 0
1 -244 -245 0
1 244 -221 0
1 -244 300 0
1 -244 -237 0
1 -244 304 0
1 -244 126 0
1 -244 298 0
1 244 -228 0
1 -226 235 0
1 226 305 0
1 226 -253 0
1 226 240 0
1 -226 -245 0
1 -226 -234 0
1 -226 -236 0
1 -226 306 0
1 226 252 0
1 226 242 0
1 226 244 0
1 226 -238 0
1 -299 235 0
1 299 -307 0
1 -299 -253 0
1 -299 245 0
1 -299 236 0
1 299 -226 0
1 299 308 0
1 -299 238 0
1 -300 -235 0
1 -300 -217 0
1 300 234 0
1 300 309 0
1 -300 236 0
1 300 -244 0
1 -300 -238 0
1 228 -235 0
1 -228 305 0
1 228 245 0
1 228 234 0
1 -228 300 0
1 228 -236 0
1 -228 -308 0
1 228 219 0
1 -228 -238 0
1 -240 -239 0
1 -240 -233 0
1 -240 -230 0
1 -240 -156 0
1 240 143 0
1 -240 -304 0
1 -240 -126 0
1 240 242 0
1 242 -239 0
1 -242 -230 0
1 -242 -231 0
1 242 240 0
1 -242 125 0
1 -242 -226 0
1 -242 -142 0
1 -242 237 0
1 -242 157 0
1 -253 239 0
1 -253 -233 0
1 -253 -243 0
1 253 310 0
1 253 248 0
1 253 -143 0
1 -253 -237 0
1 -253 -252 0
1 -253 -241 0
1 253 142 0
1 -252 299 0
1 -252 -239 0
1 -252 310 0
1 252 143 0
1 -252 311 0
1 -252 -226 0
1 252 -237 0
1 -252 -169 0
1 252 -142 0
1 -304 -312 0
1 -304 -262 0
1 304 -233 0
1 -304 -247 0
1 -304 253 0
1 -304 240 0
1 304 313 0
1 -304 -261 0
1 -304 229 0
1 -304 -314 0
1 304 -252 0
1 304 -242 0
1 304 244 0
1 233 -262 0
1 233 -315 0
1 -233 253 0
1 233 240 0
1 233 -245 0
1 233 261 0
1 -233 -252 0
1 233 -244 0
1 -237 -239 0
1 -237 312 0
1 237 -305 0
1 237 253 0
1 237 245 0
1 -237 -316 0
1 237 317 0
1 -237 308 0
1 237 -252 0
1 237 -244 0
1 239 223 0
1 239 312 0
1 239 318 0
1 -239 305 0
1 239 -253 0
1 -239 -245 0
1 -239 -313 0
1 239 237 0
1 -239 -316 0
1 239 308 0
1 239 252 0
1 239 -242 0
1 239 244 0
1 -247 165 0
1 -247 -305 0
1 -247 311 0
1 -247 -251 0
1 247 -304 0
1 247 -243 0
1 247 -142 0
1 -247 138 0
1 251 143 0
1 -251 -304 0
1 -251 -308 0
1 251 243 0
1 251 241 0
1 251 138 0
1 251 -246 0
1 262 -318 0
1 262 250 0
1 -262 -261 0
1 262 304 0
1 -262 243 0
1 262 241 0
1 -262 246 0
1 -261 -262 0
1 -261 -233 0
1 261 310 0
1 -261 -311 0
1 -261 -254 0
1 261 250 0
1 -261 177 0
1 261 304 0
1 261 -249 0
1 -261 -246 0
1 -241 266 0
1 -241 258 0
1 241 262 0
1 241 247 0
1 241 253 0
1 -241 311 0
1 241 -319 0
1 -241 -259 0
1 -241 261 0
1 241 251 0
1 -241 -125 0
1 241 320 0
1 -241 321 0
1 -311 258 0
1 311 262 0
1 311 -253 0
1 -311 -319 0
1 311 -267 0
1 311 -261 0
1 311 -251 0
1 -311 241 0
1 -311 -321 0
1 -243 -322 0
1 -243 312 0
1 243 262 0
1 -243 -310 0
1 243 -319 0
1 243 251 0
1 -243 -126 0
1 -243 -252 0
1 243 -323 0
1 310 -262 0
1 310 247 0
1 310 -243 0
1 -310 -230 0
1 -310 -253 0
1 -310 -324 0
1 -310 -319 0
1 310 313 0
1 310 261 0
1 310 -251 0
1 -310 252 0
1 -310 -321 0
1 -258 -146 0
1 -258 158 0
1 258 -254 0
1 -258 250 0
1 -258 149 0
1 258 160 0
1 258 325 0
1 259 258 0
1 259 158 0
1 259 311 0
1 259 -250 0
1 259 -149 0
1 -259 -160 0
1 -259 241 0
1 259 -249 0
1 -266 158 0
1 266 254 0
1 -266 250 0
1 266 267 0
1 266 260 0
1 -266 160 0
1 -266 241 0
1 -266 -249 0
1 -267 -266 0
1 267 326 0
1 -267 -158 0
1 -267 -311 0
1 -267 -254 0
1 267 189 0
1 267 -327 0
1 -267 260 0
1 -267 -241 0
1 -267 325 0
1 249 266 0
1 -249 328 0
1 -249 271 0
1 -249 -270 0
1 249 -267 0
1 -249 -259 0
1 249 -261 0
1 249 -329 0
1 -249 274 0
1 249 -330 0
1 -250 266 0
1 250 271 0
1 250 139 0
1 -250 -259 0
1 250 261 0
1 -250 329 0
1 -250 -249 0
1 -325 -266 0
1 325 -262 0
1 -325 328 0
1 -325 254 0
1 325 -319 0
1 325 267 0
1 325 -259 0
1 -325 -261 0
1 325 331 0
1 325 -329 0
1 -325 332 0
1 254 266 0
1 254 258 0
1 254 -262 0
1 254 328 0
1 -254 -333 0
1 254 334 0
1 254 -319 0
1 -254 -267 0
1 254 -329 0
1 -254 -332 0
1 270 -326 0
1 270 257 0
1 270 158 0
1 270 255 0
1 -270 -168 0
1 270 -181 0
1 -270 -250 0
1 -270 319 0
1 -270 260 0
1 -270 160 0
1 274 257 0
1 274 -168 0
1 -274 -271 0
1 -274 327 0
1 -274 -260 0
1 -274 268 0
1 274 335 0
1 -274 -170 0
1 274 -204 0
1 -274 332 0
1 -274 -249 0
1 -271 -326 0
1 -271 -257 0
1 271 265 0
1 -271 202 0
1 -271 333 0
1 271 -250 0
1 271 -260 0
1 271 268 0
1 271 335 0
1 -271 274 0
1 -257 336 0
1 -257 281 0
1 -257 269 0
1 -257 271 0
1 -257 -270 0
1 257 -267 0
1 -257 -260 0
1 257 -280 0
1 -257 -273 0
1 -257 274 0
1 -260 -266 0
1 -260 257 0
1 260 281 0
1 260 269 0
1 -260 -271 0
1 260 -267 0
1 260 -149 0
1 260 337 0
1 260 338 0
1 -260 280 0
1 -260 -273 0
1 -326 266 0
1 326 339 0
1 -326 -340 0
1 326 -271 0
1 -326 -270 0
1 -326 -267 0
1 -326 327 0
1 326 -338 0
1 326 341 0
1 326 329 0
1 326 -274 0
1 327 -266 0
1 327 -328 0
1 327 -271 0
1 327 -270 0
1 -327 -153 0
1 327 342 0
1 -327 -338 0
1 -327 341 0
1 273 -264 0
1 -273 -269 0
1 -273 168 0
1 -273 176 0
1 273 268 0
1 273 -335 0
1 -273 -263 0
1 273 -329 0
1 273 178 0
1 269 257 0
1 -269 -265 0
1 -269 -197 0
1 269 166 0
1 269 176 0
1 269 260 0
1 269 -335 0
1 269 273 0
1 280 281 0
1 -280 -343 0
1 -280 260 0
1 -280 -210 0
1 280 -341 0
1 280 344 0
1 280 178 0
1 280 -272 0
1 -281 257 0
1 -281 340 0
1 -281 264 0
1 281 345 0
1 -281 260 0
1 -281 -335 0
1 -281 280 0
1 -281 272 0
1 281 -344 0
1 281 178 0
1 264 -346 0
1 -264 287 0
1 264 275 0
1 264 281 0
1 -264 269 0
1 264 271 0
1 -264 -347 0
1 264 288 0
1 -264 335 0
1 264 273 0
1 -264 274 0
1 335 -275 0
1 -335 -281 0
1 -335 264 0
1 335 271 0
1 335 347 0
1 -335 -288 0
1 335 -277 0
1 335 -256 0
1 -335 280 0
1 -335 -274 0
1 265 -348 0
1 -265 -269 0
1 -265 -347 0
1 265 349 0
1 265 -268 0
1 -265 -338 0
1 -265 280 0
1 -265 273 0
1 -268 348 0
1 268 339 0
1 -268 -271 0
1 -268 -349 0
1 268 338 0
1 268 -280 0
1 -268 273 0
1 -268 -274 0
1 277 -275 0
1 -277 345 0
1 277 -343 0
1 -277 -176 0
1 -277 173 0
1 277 208 0
1 277 335 0
1 -277 -272 0
1 -277 -178 0
1 -275 -282 0
1 275 -205 0
1 -275 339 0
1 275 264 0
1 275 -343 0
1 -275 -176 0
1 275 173 0
1 275 335 0
1 275 344 0
1 -275 -175 0
1 -288 -282 0
1 -288 -287 0
1 -288 -264 0
1 -288 343 0
1 288 -279 0
1 288 187 0
1 -288 -286 0
1 288 -335 0
1 -288 -344 0
1 -288 278 0
1 -287 -282 0
1 -287 348 0
1 287 -264 0
1 287 279 0
1 -287 -187 0
1 -287 288 0
1 -287 335 0
1 287 -350 0
1 343 283 0
1 -343 275 0
1 343 281 0
1 -343 -294 0
1 343 -285 0
1 -343 -277 0
1 343 -280 0
1 343 293 0
1 -344 283 0
1 -344 287 0
1 -344 275 0
1 -344 294 0
1 344 -277 0
1 -344 280 0
1 -344 263 0
1 344 -293 0
1 -345 346 0
1 -345 287 0
1 345 -281 0
1 -345 -347 0
1 345 -288 0
1 -345 277 0
1 -345 272 0
1 272 287 0
1 -272 281 0
1 -272 -351 0
1 -272 288 0
1 272 280 0
1 -272 -352 0
1 285 -283 0
1 285 -279 0
1 -285 -276 0
1 285 295 0
1 -285 -187 0
1 285 347 0
1 285 -182 0
1 285 344 0
1 -285 350 0
1 -283 282 0
1 283 -343 0
1 -283 -276 0
1 -283 200 0
1 -283 350 0
1 -283 -278 0
1 -283 291 0
1 -294 201 0
1 -294 -343 0
1 -294 276 0
1 -294 351 0
1 294 -278 0
1 294 -350 0
1 -294 -293 0
1 -293 -201 0
1 293 279 0
1 293 276 0
1 -293 -344 0
1 293 292 0
1 -276 283 0
1 -276 -287 0
1 276 -173 0
1 -276 -285 0
1 -276 288 0
1 276 278 0
1 276 293 0
1 -278 -294 0
1 278 276 0
1 -278 -285 0
1 -278 288 0
1 278 -175 0
1 278 293 0
1 279 283 0
1 -279 294 0
1 279 -285 0
1 279 350 0
1 -279 288 0
1 -350 287 0
1 350 -294 0
1 350 -285 0
1 -350 -288 0
1 -350 178 0
1 -305 -299 0
1 -305 239 0
1 305 247 0
1 -305 -308 0
1 305 303 0
1 -305 228 0
1 308 299 0
1 308 -239 0
1 308 305 0
1 308 -302 0
1 -308 301 0
1 -308 300 0
1 308 226 0
1 308 -237 0
1 -308 251 0
1 -308 -303 0
1 -308 -228 0
1 -318 -262 0
1 -318 301 0
1 -318 309 0
1 -318 -306 0
1 -318 -237 0
1 -318 316 0
1 -318 353 0
1 316 307 0
1 -316 239 0
1 316 -318 0
1 -316 -302 0
1 316 -301 0
1 316 261 0
1 316 -237 0
1 -316 354 0
1 -316 -353 0
1 301 -322 0
1 301 318 0
1 -301 -221 0
1 -301 -355 0
1 -301 -316 0
1 -354 322 0
1 354 -318 0
1 -354 305 0
1 354 301 0
1 354 -356 0
1 354 -313 0
1 -354 316 0
1 -354 -298 0
1 354 -357 0
1 302 -318 0
1 302 -222 0
1 -302 -303 0
1 -303 305 0
1 -303 302 0
1 -312 307 0
1 312 -258 0
1 -312 -301 0
1 312 237 0
1 312 306 0
1 -312 243 0
1 312 354 0
1 -312 353 0
1 -313 307 0
1 -313 -239 0
1 -313 -312 0
1 -313 -233 0
1 -313 -301 0
1 -313 -259 0
1 313 -243 0
1 313 354 0
1 313 -353 0
1 322 -266 0
1 322 310 0
1 322 -301 0
1 322 -317 0
1 -322 -353 0
1 -356 307 0
1 356 -315 0
1 -356 301 0
1 -356 -309 0
1 356 -353 0
1 306 312 0
1 306 318 0
1 -306 356 0
1 -306 226 0
1 -306 -313 0
1 306 -358 0
1 -306 316 0
1 -306 -321 0
1 307 -322 0
1 -307 359 0
1 -307 318 0
1 307 333 0
1 -307 319 0
1 307 -356 0
1 307 -313 0
1 -307 -316 0
1 307 360 0
1 309 322 0
1 309 -312 0
1 309 -361 0
1 309 -356 0
1 -309 -300 0
1 -309 -316 0
1 309 -353 0
1 -353 312 0
1 -353 318 0
1 353 -228 0
1 353 -309 0
1 353 -313 0
1 353 316 0
1 321 -362 0
1 -321 -315 0
1 321 310 0
1 -321 -254 0
1 321 -319 0
1 321 306 0
1 321 243 0
1 -321 241 0
1 319 307 0
1 -319 -315 0
1 -319 311 0
1 319 254 0
1 319 306 0
1 -319 317 0
1 319 -314 0
1 -319 243 0
1 319 -241 0
1 319 325 0
1 -319 321 0
1 -332 362 0
1 -332 -315 0
1 332 -254 0
1 -332 -333 0
1 332 -317 0
1 332 -323 0
1 332 320 0
1 -332 -325 0
1 333 307 0
1 -333 -362 0
1 333 315 0
1 -333 271 0
1 -333 306 0
1 -333 317 0
1 -333 314 0
1 333 323 0
1 -333 320 0
1 -333 -325 0
1 -333 332 0
1 314 -322 0
1 314 363 0
1 -314 -315 0
1 -314 364 0
1 -314 -340 0
1 -314 -328 0
1 -314 333 0
1 -314 -319 0
1 -314 365 0
1 314 -329 0
1 314 -332 0
1 -314 321 0
1 -315 340 0
1 315 366 0
1 -315 328 0
1 315 356 0
1 -315 -365 0
1 -315 341 0
1 315 -332 0
1 -315 -321 0
1 -317 -367 0
1 317 361 0
1 317 -333 0
1 317 356 0
1 -317 -368 0
1 -317 -360 0
1 317 332 0
1 362 -322 0
1 362 -369 0
1 362 -364 0
1 362 -367 0
1 -362 -361 0
1 362 -333 0
1 362 -319 0
1 -362 356 0
1 362 -317 0
1 362 365 0
1 362 -370 0
1 -362 332 0
1 -329 326 0
1 -329 371 0
1 329 254 0
1 -329 -323 0
1 329 320 0
1 -329 360 0
1 329 -249 0
1 328 315 0
1 328 361 0
1 -328 250 0
1 328 327 0
1 328 -314 0
1 -328 320 0
1 328 -249 0
1 341 -326 0
1 341 315 0
1 341 340 0
1 -341 371 0
1 341 334 0
1 -341 372 0
1 -341 -327 0
1 -341 -314 0
1 341 280 0
1 -341 -370 0
1 -341 330 0
1 340 -326 0
1 340 315 0
1 -340 -281 0
1 340 324 0
1 -340 372 0
1 340 -341 0
1 340 -320 0
1 340 330 0
1 -320 -373 0
1 320 -339 0
1 320 -328 0
1 320 -333 0
1 -320 -241 0
1 320 374 0
1 320 349 0
1 -320 338 0
1 320 341 0
1 -371 -339 0
1 -371 328 0
1 -371 -333 0
1 -371 -374 0
1 -371 -349 0
1 -371 -338 0
1 -371 320 0
1 371 332 0
1 323 -375 0
1 323 340 0
1 -323 -243 0
1 -323 -328 0
1 323 333 0
1 -323 -374 0
1 -323 376 0
1 324 373 0
1 -324 375 0
1 324 -364 0
1 324 -340 0
1 324 -365 0
1 324 323 0
1 324 -332 0
1 338 -371 0
1 -338 372 0
1 -338 -327 0
1 338 -260 0
1 -338 268 0
1 338 277 0
1 -338 -365 0
1 -338 320 0
1 338 331 0
1 -338 330 0
1 339 -326 0
1 -339 275 0
1 -339 372 0
1 339 -268 0
1 339 -320 0
1 -339 330 0
1 349 -348 0
1 349 336 0
1 -349 -371 0
1 349 -372 0
1 -349 337 0
1 349 320 0
1 -348 377 0
1 348 287 0
1 348 -371 0
1 348 -334 0
1 348 -372 0
1 -348 320 0
1 348 331 0
1 -330 346 0
1 -330 -348 0
1 330 339 0
1 330 347 0
1 330 338 0
1 -330 341 0
1 330 -249 0
1 -330 -352 0
1 372 -346 0
1 -372 -348 0
1 372 339 0
1 372 330 0
1 -372 250 0
1 372 347 0
1 372 349 0
1 -372 338 0
1 -372 -341 0
1 331 373 0
1 331 339 0
1 -331 -334 0
1 -331 -374 0
1 -331 -349 0
1 -331 338 0
1 -331 -341 0
1 331 325 0
1 -334 373 0
1 -334 340 0
1 334 254 0
1 -334 -378 0
1 -334 374 0
1 334 338 0
1 334 -341 0
1 -347 377 0
1 347 -336 0
1 347 265 0
1 -347 264 0
1 347 -345 0
1 347 -372 0
1 -347 342 0
1 347 -285 0
1 -347 -335 0
1 -347 272 0
1 347 -330 0
1 -346 283 0
1 346 -373 0
1 346 336 0
1 346 -265 0
1 -346 372 0
1 -351 -336 0
1 351 -330 0
1 -351 -345 0
1 351 -372 0
1 -351 -352 0
1 -352 377 0
1 -352 345 0
1 352 -372 0
1 352 351 0
1 -352 342 0
1 352 -337 0
1 -352 272 0
1 -352 330 0
1 -336 346 0
1 -336 -257 0
1 -336 337 0
1 336 352 0
1 -337 346 0
1 337 -348 0
1 337 336 0
1 -337 351 0
1 -337 260 0
1 337 347 0
1 -337 349 0
1 337 -352 0
1 -377 -326 0
1 377 348 0
1 -377 -351 0
1 -377 342 0
1 -377 347 0
1 377 352 0
1 342 348 0
1 342 352 0
1 -360 -362 0
1 -360 -355 0
1 -360 -306 0
1 360 -317 0
1 -360 -329 0
1 361 -307 0
1 361 -328 0
1 -361 -379 0
1 -361 -355 0
1 361 -309 0
1 361 -306 0
1 361 -353 0
1 370 -380 0
1 -370 359 0
1 -370 362 0
1 -370 367 0
1 -370 379 0
1 370 -381 0
1 370 358 0
1 -370 317 0
1 370 341 0
1 367 380 0
1 367 359 0
1 -367 362 0
1 -367 -379 0
1 -367 -355 0
1 367 317 0
1 367 -370 0
1 355 375 0
1 355 364 0
1 -355 367 0
1 355 -357 0
1 355 -361 0
1 355 -301 0
1 355 376 0
1 355 -365 0
1 355 370 0
1 -355 360 0
1 -357 -375 0
1 -357 364 0
1 357 367 0
1 -357 -376 0
1 357 365 0
1 -357 -370 0
1 -357 360 0
1 -379 360 0
1 -382 367 0
1 -382 379 0
1 382 360 0
1 365 -359 0
1 365 -362 0
1 365 -315 0
1 -365 324 0
1 365 -381 0
1 365 317 0
1 365 338 0
1 364 -380 0
1 -364 -359 0
1 364 -362 0
1 364 339 0
1 364 324 0
1 -364 355 0
1 364 358 0
1 364 317 0
1 -364 -314 0
1 364 323 0
1 376 -375 0
1 376 369 0
1 -376 -366 0
1 376 381 0
1 376 363 0
1 376 323 0
1 375 -380 0
1 375 348 0
1 375 369 0
1 375 355 0
1 -375 381 0
1 -375 -358 0
1 -375 -323 0
1 375 -357 0
1 -358 373 0
1 358 359 0
1 -358 375 0
1 -358 -364 0
1 -358 378 0
1 358 306 0
1 -358 376 0
1 -359 -383 0
1 359 -307 0
1 359 -373 0
1 -359 -378 0
1 359 -374 0
1 359 -358 0
1 -359 -376 0
1 -359 -370 0
1 381 380 0
1 381 -367 0
1 -381 376 0
1 -381 370 0
1 380 364 0
1 -380 365 0
1 380 -353 0
1 -374 369 0
1 374 334 0
1 374 -347 0
1 374 368 0
1 374 363 0
1 -374 320 0
1 374 331 0
1 373 346 0
1 373 -359 0
1 373 369 0
1 -373 366 0
1 373 334 0
1 -373 374 0
1 373 358 0
1 -373 -368 0
1 373 320 0
1 373 -331 0
1 378 -359 0
1 378 -369 0
1 378 334 0
1 378 368 0
1 383 -359 0
1 383 -366 0
1 383 -378 0
1 -383 368 0
1 -383 363 0
1 383 -331 0
1 -363 373 0
1 -363 -375 0
1 -363 -366 0
1 -363 376 0
1 363 -314 0
1 366 373 0
1 -366 374 0
1 -366 -376 0
1 368 -383 0
1 368 376 0
1 -369 -362 0
1 -369 -375 0
1 369 -378 0
1 -369 374 0
1 -369 -376 0
1 -369 368 0
